{"lblp_lower": [294.865251503385, 334.725, 339.90991734584753, 349.50617647058834, 352.51510695187176, 354.07413793103433, 355.2124999999999], "cuttingPlaneBendInfo": [{"tot_cut_value": 0, "TOT_gen_cut": 0, "tot_time_opt": 0, "max_time_opt": 0}, {"tot_cut_value": 0, "TOT_gen_cut": 0, "tot_time_opt": 0, "max_time_opt": 0}, {"tot_cut_value": 0, "TOT_gen_cut": 0, "tot_time_opt": 0, "max_time_opt": 0}, {"tot_cut_value": 0, "TOT_gen_cut": 0, "tot_time_opt": 0, "max_time_opt": 0}, {"tot_cut_value": 0, "TOT_gen_cut": 0, "tot_time_opt": 0, "max_time_opt": 0}, {"tot_cut_value": 0, "TOT_gen_cut": 0, "tot_time_opt": 0, "max_time_opt": 0}, {"tot_cut_value": 0, "TOT_gen_cut": 0, "tot_time_opt": 0, "max_time_opt": 0}], "time_compress": [0, 0, 0, 0, 0, 0, 0], "ub_lp": [595.8213108688848, 465.27131086888465, 393.3578125000001, 367.37304347826097, 363.56263440860215, 362.9125, 355.2124999999999], "prob_sizes_at_start": [{"timeGraph": 212, "capGraph": 102, "ngGraph": 52}, {"timeGraph": 343, "capGraph": 138, "ngGraph": 103}, {"timeGraph": 390, "capGraph": 183, "ngGraph": 124}, {"timeGraph": 434, "capGraph": 414, "ngGraph": 161}, {"timeGraph": 455, "capGraph": 449, "ngGraph": 161}, {"timeGraph": 481, "capGraph": 485, "ngGraph": 195}, {"timeGraph": 494, "capGraph": 498, "ngGraph": 218}], "prob_sizes_after_compress": [{"timeGraph": 74, "capGraph": 23, "ngGraph": 6}, {"timeGraph": 159, "capGraph": 31, "ngGraph": 15}, {"timeGraph": 204, "capGraph": 51, "ngGraph": 22}, {"timeGraph": 173, "capGraph": 274, "ngGraph": 26}, {"timeGraph": 162, "capGraph": 304, "ngGraph": 36}, {"timeGraph": 171, "capGraph": 296, "ngGraph": 42}, {"timeGraph": 164, "capGraph": 312, "ngGraph": 42}], "prob_sizes_after_split": [{"timeGraph": 343, "capGraph": 138, "ngGraph": 103}, {"timeGraph": 390, "capGraph": 183, "ngGraph": 124}, {"timeGraph": 434, "capGraph": 414, "ngGraph": 161}, {"timeGraph": 455, "capGraph": 449, "ngGraph": 161}, {"timeGraph": 481, "capGraph": 485, "ngGraph": 195}, {"timeGraph": 494, "capGraph": 498, "ngGraph": 218}, {"timeGraph": 330, "capGraph": 417, "ngGraph": 101}], "did_compress": [true, true, true, true, true, true, true], "lp_time_project": [0.1291201114654541, 0.05729103088378906, 0.11668896675109863, 0.1150519847869873, 0.14746904373168945, 0.08524513244628906, 0.08069181442260742], "lp_time_LB": [0.3726677894592285, 0.4137108325958252, 1.7061901092529297, 1.5797529220581055, 0.612544059753418, 0.5062305927276611, 0.3643019199371338], "ilp_time": [], "history_of_graphs_by_iter": [], "ROOT_LP_PRIOR_ADDING_CUTS": 355.2124999999999, "OUR_ilp_objective": 358.0, "OUR_MIP_Lower_Bound": 358.0, "OUR_ilp_time": 3.7371578216552734, "OUR_gurobi_MILP_str": "Gurobi Optimizer version 12.0.1 build v12.0.1rc0 (mac64[arm] - Darwin 24.5.0 24F74)\n\nCPU model: Apple M1\nThread count: 8 physical cores, 8 logical processors, using up to 8 threads\n\nNon-default parameters:\nTimeLimit  1000\n\nWLS license 2690165 - registered to Optym\nOptimize a model with 14636 rows, 14898 columns and 70336 nonzeros\nModel fingerprint: 0xaec7dce8\nVariable types: 12437 continuous, 2461 integer (2461 binary)\nCoefficient statistics:\n  Matrix range     [1e+00, 1e+03]\n  Objective range  [1e+00, 6e+01]\n  Bounds range     [1e+00, 1e+03]\n  RHS range        [1e+00, 1e+03]\nPresolve removed 12014 rows and 4968 columns\nPresolve time: 0.09s\nPresolved: 2622 rows, 9930 columns, 40547 nonzeros\nVariable types: 9437 continuous, 493 integer (493 binary)\n\nRoot relaxation: objective 3.552125e+02, 7503 iterations, 0.39 seconds (0.70 work units)\n\n    Nodes    |    Current Node    |     Objective Bounds      |     Work\n Expl Unexpl |  Obj  Depth IntInf | Incumbent    BestBd   Gap | It/Node Time\n\n     0     0  355.21250    0   61          -  355.21250      -     -    0s\nH    0     0                     857.0000000  355.21250  58.6%     -    0s\nH    0     0                     638.7000000  355.21250  44.4%     -    0s\nH    0     0                     462.9000000  355.21250  23.3%     -    0s\nH    0     0                     462.4000000  355.21250  23.2%     -    0s\nH    0     0                     459.7000000  355.21250  22.7%     -    0s\nH    0     0                     427.1000000  355.21250  16.8%     -    0s\nH    0     0                     426.5000000  355.21250  16.7%     -    0s\n     0     0  355.21613    0   62  426.50000  355.21613  16.7%     -    0s\nH    0     0                     425.1000000  355.21613  16.4%     -    0s\n     0     0  355.21613    0   62  425.10000  355.21613  16.4%     -    0s\n     0     0  355.21933    0   73  425.10000  355.21933  16.4%     -    0s\n     0     0  355.21946    0   74  425.10000  355.21946  16.4%     -    0s\n     0     0  355.48000    0   74  425.10000  355.48000  16.4%     -    1s\nH    0     0                     417.1000000  355.48000  14.8%     -    1s\nH    0     0                     415.7000000  355.48000  14.5%     -    1s\n     0     0  355.48000    0   74  415.70000  355.48000  14.5%     -    1s\n     0     0  355.80797    0   64  415.70000  355.80797  14.4%     -    1s\n     0     0  355.80797    0   67  415.70000  355.80797  14.4%     -    1s\n     0     0  355.80797    0   63  415.70000  355.80797  14.4%     -    1s\n     0     0  355.80797    0   63  415.70000  355.80797  14.4%     -    1s\n     0     0  355.80797    0   73  415.70000  355.80797  14.4%     -    1s\nH    0     0                     358.9000000  355.80797  0.86%     -    1s\n     0     0  355.80797    0   73  358.90000  355.80797  0.86%     -    1s\n     0     0  355.87143    0   65  358.90000  355.87143  0.84%     -    1s\n     0     0  355.87143    0   65  358.90000  355.87143  0.84%     -    1s\n     0     2  355.87143    0   65  358.90000  355.87143  0.84%     -    1s\nH  141    51                     358.0000000  356.03314  0.55%   210    3s\n\nCutting planes:\n  Implied bound: 22\n  MIR: 62\n  Mixing: 4\n  Flow cover: 20\n  Inf proof: 2\n  Relax-and-lift: 5\n\nExplored 343 nodes (57969 simplex iterations) in 3.74 seconds (6.93 work units)\nThread count was 8 (of 8 available processors)\n\nSolution count 10: 358 358.9 415.7 ... 462.9\n\nOptimal solution found (tolerance 1.00e-04)\nBest objective 3.580000000000e+02, best bound 3.580000000000e+02, gap 0.0000%\n", "jy_opt": {"ParetoEps": 1e-05, "turn_off_time_windows": false, "deactivate_time_graph": false, "deactivate_demand_graph": false, "epsilon": 0.0001, "weight_slack_projector": 1e-05, "weight_compress": 0.01, "num_cust_use": 50, "dem_step_sz": 1, "time_step_sz": 25, "use_compression": 1, "max_iterations_loop_compress_project": 100, "do_round_dist_times": 1, "my_shift_bet_time_win": 0.0001, "num_terms_per_bin_init_construct": 10, "allOneBig_init": 0, "min_inc_2_compress": 0.1, "save_graph_each_iter": 0, "use_Xpress": 0, "use_ineq": false, "xpress_file_loc": "/Users/julian/Documents/FICO_Xpress_Config/xpauth.xpr", "run_baseline": 0, "verbose": 0, "use_NG_graph": 1, "num_NG": 5, "in_demo_mode": 0, "threshold_split": 0.01, "offset_cost_edge_project": 0, "use_classic_compress": 1, "use_classic_compress_last": 0, "num_thresh_split_projector": 10, "lplb_solver": 4, "compresss_solver": 0, "proj_solver": 4, "use_julians_custom_lp_solver": 0, "do_ilp": 1, "roundingDiscretization_num_digits_keep": 3, "doExrtraRemovalEdgesLB": 0, "use_gurobi": 1, "max_ILP_time": 1000, "use_fancy_ng_graph": 1, "use_dem_graph": 1, "use_time_graph": 1, "num_multiplys_demand": 0, "DEBUG_ALLOW_DUMB_EDGES": 0, "add_all_ng_split_at_end": 0, "do_split_based_init": 1, "think_compress": 0, "use_delta_in_milp": [1], "use_delta_in_lp": 1, "turn_off_non_active_fg_project": 0, "use_new_valid_ineq": 0, "digit_mult_use": 10, "use_branch_on_g": true, "LAB_MP_ON": 0, "LAB_MP_neigh_use_power": 10, "LAB_MP_num_ineq_use": 10, "do_remove_actions_from_incumbant": 1, "ub_use_remove": 358.0, "use_packing_in_construction": 1, "maxVarsAdd_in_ITER": 10, "use_ng_size_init": 0, "do_presolve": 0, "use_diving_ineq": 0, "BEND_MIN_LP_OBJECTIVE_CUT": 0.1, "BEND_USE_RAND": 0, "BEND_MAX_SIZE_CHOOSE_K": 260, "BEND_VAL_STOP_ADDING_CUTS": 100000000, "BEND_MY_SIZES_USE": [9], "NUMERICAL_BEND_OFFSET_COST_CUT": 0.0001, "NUMERICAL_BEND_EPSILON_MULT_PARETO_OBJ": 0.001, "NO_PARETO_NUMERICAL_BEND_OFFSET_COST_CUT": 0, "NO_PARETO_BEND_VAL_STOP_ADDING_CUTS": 1, "NO_PARETO_EPSILON_MAX_VAL_CON": 0.01, "BENDERS_NEIGH_SZ_USE": 9, "Actions_of_given_sol": [], "all_vars_binary": 0, "use_ng": 1, "restore_after_each_step": 1, "compress_solver": 1, "DEBUG_NG_turn_off_CLEAN": false, "max_nodes_split": Infinity}, "output_ilp_solution": {"act_0_2": 1, "act_1_0": 1, "act_2_4": 1, "act_3_1": 1, "act_4_51": 1, "act_5_3": 1, "act_6_7": 1, "act_7_10": 1, "act_8_5": 1, "act_9_51": 1, "act_10_8": 1, "act_11_9": 1, "act_12_16": 1, "act_13_11": 1, "act_14_15": 1, "act_15_13": 1, "act_16_17": 1, "act_17_18": 1, "act_18_14": 1, "act_19_23": 1, "act_20_51": 1, "act_21_20": 1, "act_22_21": 1, "act_23_24": 1, "act_24_26": 1, "act_25_22": 1, "act_26_28": 1, "act_27_25": 1, "act_28_29": 1, "act_29_27": 1, "act_30_32": 1, "act_31_51": 1, "act_32_31": 1, "act_33_35": 1, "act_34_30": 1, "act_35_38": 1, "act_36_34": 1, "act_37_36": 1, "act_38_37": 1, "act_39_43": 1, "act_40_39": 1, "act_41_40": 1, "act_42_41": 1, "act_43_44": 1, "act_44_45": 1, "act_45_47": 1, "act_46_51": 1, "act_47_49": 1, "act_48_46": 1, "act_49_48": 1, "act_50_6": 1, "act_50_12": 1, "act_50_19": 1, "act_50_33": 1, "act_50_42": 1}, "Actions_of_given_sol": "none just used source and sink terms", "actions_used": ["act_0_2", "act_1_0", "act_2_4", "act_3_1", "act_4_51", "act_5_3", "act_6_7", "act_7_10", "act_8_5", "act_9_51", "act_10_8", "act_11_9", "act_12_16", "act_13_11", "act_14_15", "act_15_13", "act_16_17", "act_17_18", "act_18_14", "act_19_23", "act_20_51", "act_21_20", "act_22_21", "act_23_24", "act_24_26", "act_25_22", "act_26_28", "act_27_25", "act_28_29", "act_29_27", "act_30_32", "act_31_51", "act_32_31", "act_33_35", "act_34_30", "act_35_38", "act_36_34", "act_37_36", "act_38_37", "act_39_43", "act_40_39", "act_41_40", "act_42_41", "act_43_44", "act_44_45", "act_45_47", "act_46_51", "act_47_49", "act_48_46", "act_49_48", "act_50_6", "act_50_12", "act_50_19", "act_50_33", "act_50_42"], "init_default_solution_is_empty": false, "objective_of_initial_sol": 2407.799999999998, "my_paths": "[[50, 6, 7, 10, 8, 5, 3, 1, 0, 2, 4, 51], [50, 12, 16, 17, 18, 14, 15, 13, 11, 9, 51], [50, 19, 23, 24, 26, 28, 29, 27, 25, 22, 21, 20, 51], [50, 33, 35, 38, 37, 36, 34, 30, 32, 31, 51], [50, 42, 41, 40, 39, 43, 44, 45, 47, 49, 48, 46, 51]]"}